instances/ampl_instances/ss_inst_5b_100n.dat
param set_len = 100;
param target_sum = 720;
param values := [0] 30 [1] 27 [2] 24 [3] 23 [4] 0 [5] 6 [6] 14 [7] 8 [8] 11 [9] 21 [10] 8 [11] 9 [12] 18 [13] 1 [14] 25 [15] 6 [16] 22 [17] 9 [18] 11 [19] 8 [20] 20 [21] 3 [22] 28 [23] 8 [24] 24 [25] 3 [26] 1 [27] 14 [28] 31 [29] 0 [30] 17 [31] 29 [32] 5 [33] 0 [34] 4 [35] 27 [36] 20 [37] 13 [38] 29 [39] 10 [40] 31 [41] 14 [42] 12 [43] 17 [44] 6 [45] 6 [46] 0 [47] 17 [48] 30 [49] 19 [50] 8 [51] 2 [52] 26 [53] 26 [54] 24 [55] 5 [56] 18 [57] 18 [58] 11 [59] 24 [60] 7 [61] 31 [62] 20 [63] 4 [64] 11 [65] 31 [66] 9 [67] 3 [68] 2 [69] 21 [70] 12 [71] 12 [72] 2 [73] 26 [74] 7 [75] 29 [76] 10 [77] 27 [78] 16 [79] 9 [80] 28 [81] 12 [82] 1 [83] 2 [84] 31 [85] 23 [86] 15 [87] 0 [88] 13 [89] 6 [90] 0 [91] 1 [92] 14 [93] 12 [94] 19 [95] 4 [96] 16 [97] 4 [98] 20 [99] 19 ;
