Project4/outputs/lp/ss_inst_5b_100n.out
_solve_elapsed_time = 0.003952

calculated_sum = 720

target_sum = 720

set_len = 100

x [*] :=
  1 1        18 1        35 1        52 0        69 0        86 0
  2 1        19 1        36 1        53 0        70 0        87 0
  3 1        20 1        37 1        54 0        71 0        88 0
  4 1        21 1        38 1        55 0        72 0        89 0
  5 0        22 1        39 1        56 0        73 0        90 0
  6 1        23 1        40 1        57 0        74 0        91 0
  7 1        24 1        41 1        58 0        75 0        92 0
  8 1        25 1        42 1        59 0        76 0        93 0
  9 1        26 1        43 1        60 0        77 0        94 0
 10 1        27 1        44 1        61 0        78 0        95 0
 11 1        28 1        45 1        62 0        79 0        96 0
 12 1        29 1        46 1        63 0        80 0        97 0
 13 1        30 0        47 0        64 0        81 0        98 0
 14 1        31 1        48 1        65 0        82 0        99 0
 15 1        32 1        49 1        66 0        83 0       100 0
 16 1        33 1        50 1        67 0        84 0
 17 1        34 0        51 0.125    68 0        85 0
;

